stacscheck/params/Bombastic2_3.param.out
letting moveCol be [-1, 0, 1]
letting moveRow be [0, 1, 0]
